
Gurobi 11.0.3 (linux64) logging started Mon 18 Nov 2024 07:50:06 PM CST

Set parameter LogFile to value "/home/dlcole3/graph_abstraction/hierarchical_graphs/git_storage/CS1/HP_low_reserves/gurobi_logs/serial/logfile_ST5_1.log"

Gurobi 11.0.3 (linux64) logging started Mon 18 Nov 2024 07:50:58 PM CST

Set parameter LogFile to value "/home/dlcole3/graph_abstraction/hierarchical_graphs/git_storage/CS1/HP_low_reserves/gurobi_logs/serial/logfile_ST5_1.log"
Gurobi Optimizer version 11.0.3 build v11.0.3rc0 (linux64 - "Ubuntu 18.04.3 LTS")

CPU model: Intel(R) Xeon(R) CPU E5-2698 v4 @ 2.20GHz, instruction set [SSE2|AVX|AVX2]
Thread count: 40 physical cores, 80 logical processors, using up to 20 threads

Optimize a model with 29168 rows, 50688 columns and 136175 nonzeros
Model fingerprint: 0xb0b2ee2a
Variable types: 46944 continuous, 3744 integer (3744 binary)
Coefficient statistics:
  Matrix range     [6e-01, 2e+04]
  Objective range  [2e+00, 2e+04]
  Bounds range     [5e-02, 2e+05]
  RHS range        [5e-02, 7e+03]
Presolve removed 14417 rows and 38865 columns
Presolve time: 0.34s
Presolved: 14751 rows, 11823 columns, 62982 nonzeros
Variable types: 8807 continuous, 3016 integer (3016 binary)
Found heuristic solution: objective 175500.53242
Found heuristic solution: objective 168050.62942
Found heuristic solution: objective 140865.03969

Root relaxation: objective 3.489805e+04, 7906 iterations, 0.30 seconds (0.21 work units)

    Nodes    |    Current Node    |     Objective Bounds      |     Work
 Expl Unexpl |  Obj  Depth IntInf | Incumbent    BestBd   Gap | It/Node Time

     0     0 34898.0490    0    5 140865.040 34898.0490  75.2%     -    1s
H    0     0                    37228.394562 34898.0490  6.26%     -    1s
H    0     0                    37228.394409 34898.0490  6.26%     -    1s
     0     0 34898.0490    0    5 37228.3944 34898.0490  6.26%     -    1s
     0     0 34898.0490    0    1 37228.3944 34898.0490  6.26%     -    2s
     0     0 34898.0490    0    2 37228.3944 34898.0490  6.26%     -    2s
     0     0 34898.0490    0    2 37228.3944 34898.0490  6.26%     -    2s
     0     0 34898.0490    0    1 37228.3944 34898.0490  6.26%     -    2s
H    0     0                    36234.566823 34898.0969  3.69%     -    2s
H    0     0                    36150.850358 34898.0969  3.47%     -    2s
     0     0 34987.5616    0    2 36150.8504 34987.5616  3.22%     -    2s
H    0     0                    35565.800305 34987.5616  1.63%     -    2s
     0     0 34987.5616    0    2 35565.8003 34987.5616  1.63%     -    2s
     0     0 34987.6115    0    2 35565.8003 34987.6115  1.63%     -    3s
     0     0 34987.6115    0    1 35565.8003 34987.6115  1.63%     -    3s
H    0     0                    35565.800263 34987.6115  1.63%     -    3s
     0     0 34987.6115    0    2 35565.8003 34987.6115  1.63%     -    3s
     0     0 34987.6115    0    2 35565.8003 34987.6115  1.63%     -    3s
     0     0 34987.6115    0    3 35565.8003 34987.6115  1.63%     -    3s
     0     0 34987.6115    0    3 35565.8003 34987.6115  1.63%     -    3s
     0     0 34987.6115    0    3 35565.8003 34987.6115  1.63%     -    3s
     0     0 34987.6115    0    2 35565.8003 34987.6115  1.63%     -    4s
     0     0 34987.6115    0    4 35565.8003 34987.6115  1.63%     -    4s
H    0     0                    35565.799201 34987.6115  1.63%     -    4s
     0     0 34987.6115    0   18 35565.7992 34987.6115  1.63%     -    4s
     0     0 34987.6115    0   18 35565.7992 34987.6115  1.63%     -    4s
     0     0 34987.6115    0   18 35565.7992 34987.6115  1.63%     -    4s
     0     2 34987.6115    0   18 35565.7992 34987.6115  1.63%     -    4s
H   55    44                    35528.864466 34987.6115  1.52%   4.5    4s
H   97    88                    35528.864426 34987.6115  1.52%   4.0    4s
H   98    88                    35528.864042 34987.6115  1.52%   4.0    4s
H  107    88                    35528.863963 34987.6115  1.52%   3.9    4s
H  111    88                    35528.863955 34987.6115  1.52%   3.8    4s
H  121   115                    35339.951068 34987.6115  1.00%   3.7    4s
H  122   115                    35172.819412 34987.6115  0.53%   3.7    4s
H  122   115                    35172.505638 34987.6115  0.53%   3.7    4s
H  134   115                    35082.544870 34987.6115  0.27%   3.7    4s
H  134   115                    35082.297945 34987.6115  0.27%   3.7    4s

Cutting planes:
  Gomory: 3
  MIR: 2
  Flow cover: 1

Explored 152 nodes (20860 simplex iterations) in 4.94 seconds (2.63 work units)
Thread count was 20 (of 80 available processors)

Solution count 10: 35082.3 35082.3 35172.5 ... 168051

Optimal solution found (tolerance 3.00e-03)
Best objective 3.508229794416e+04, best bound 3.498761149831e+04, gap 0.2699%

User-callback calls 2329, time in user-callback 0.00 sec
